param set_len = 28;
param target_sum = 6918967308;
param values := [1] 323036454 [2] 235878710 [3] 281178079 [4] 84856693 [5] 219965184 [6] 744979608 [7] 43613554 [8] 631496056 [9] 39279523 [10] 352035705 [11] 612382580 [12] 925031974 [13] 36247664 [14] 366017256 [15] 593533049 [16] 684622402 [17] 342568957 [18] 384167217 [19] 651469828 [20] 574714366 [21] 277217320 [22] 896799405 [23] 137003785 [24] 696151724 [25] 955215141 [26] 409687489 [27] 642911637 [28] 154951846 ;
